(declare-const a Real)
(declare-const b Real)
(declare-const c Real)
(declare-const d Real)
(assert (= (+ (* a b) (* a d) (* b c) (* c d)) 1))
(assert (> a 0))
(assert (> b 0))
(assert (> c 0))
(assert (> d 0))
(assert (not (<= (+ (* -1 (pow (* (pow (+ (pow a (/ 9 4)) (pow b (/ 9 4)) (pow c (/ 9 4)) (pow d (/ 9 4))) 4) (pow (+ (pow (+ a b c) 3) (pow (+ a b d) 3) (pow (+ a c d) 3) (pow (+ b c d) 3)) -1)) (pow 3 -1))) (* (/ 1 3) a b) (* (/ 1 3) a d) (* (/ 1 3) b c) (* (/ 1 3) c d)) 0)))
(check-sat)
(get-model)
(exit)